80 870382962
27 67 33 60 62 58 72 40 76 31 75 71 39 26 32 10 4 15 74 65 53 22 9 7 3 51 69 49 70 73 35 23 16 19 78 18 42 28 30 54 56 46 59 17 41 5 24 14 48 57 36 25 2 77 66 47 79 29 63 6 11 20 34 52 21 45 13 38 37 68 55 12 44 61 64 80 43 1 8 50 
